c turning on binary mode checking
c parsing input formula with 1151 variables and 2481 clauses
c finished parsing, read 25155726 bytes from proof file
c detected empty clause; start verification via backward checking
c 1464 of 2481 clauses in core                            
c 589990 of 715773 lemmas in core using 15723590 resolution steps
c 0 RAT lemmas in core; 208938 redundant literals in core lemmas
s VERIFIED
c verification time: 93.683 seconds
